CAV19/sygus/CAV/32bits_signed/32bits_unsignedcegis_danger_benchmark_svcomp_multivar_true-unreach-call1.sl_32bits_unsigned.sl_32bits_signed.sl
(set-logic BV)

(synth-inv inv_fun ((x (_ BitVec 32))(y (_ BitVec 32))))

(define-fun pre_fun ((x (_ BitVec 32)) (y (_ BitVec 32))) Bool
       ( = x y ))
(define-fun trans_fun ((x (_ BitVec 32)) (x! (_ BitVec 32)) (y (_ BitVec 32)) (y! (_ BitVec 32))) Bool
       ( and ( bvslt x #x00000400 ) ( = x! ( bvadd x #x00000001 ) ) ( = y! ( bvadd y #x00000001 ) ) ))
(define-fun post_fun ((x (_ BitVec 32)) (y (_ BitVec 32))) Bool
       ( or ( = x y ) ( bvslt x #x00000400 ) ))

(inv-constraint inv_fun pre_fun trans_fun post_fun)

(check-synth)

