data/BV/CAV19/chc/32bits_signed/32bits_unsignedcegis_danger_benchmark_svcomp_multivar_true-unreach-call1.sl_32bits_unsigned.sl_32bits_signed.smt2
(set-logic HORN)
(declare-fun inv ((_ BitVec 32) (_ BitVec 32) ) Bool)
(assert (forall ((x (_ BitVec 32)) (y (_ BitVec 32))) 
       (=> ( = x y ) (inv x y))))
(assert (forall ((x (_ BitVec 32)) (x! (_ BitVec 32)) (y (_ BitVec 32)) (y! (_ BitVec 32))) 
       (=> (and (inv x x!) ( and ( bvslt x #x00000400 ) ( = x! ( bvadd x #x00000001 ) ) ( = y! ( bvadd y #x00000001 ) ) )) (inv y y!))))
(assert (forall ((x (_ BitVec 32)) (y (_ BitVec 32))) 
       (=> (inv x y) ( or ( = x y ) ( bvslt x #x00000400 ) ))))
(check-sat)
